NAME : Queens Problem for N = 7
COMMENT : 
TYPE : HCP
DIMENSION : 1968
EDGE_DATA_FORMAT : EDGE_LIST
EDGE_DATA_SECTION
1 2
1 1527
2 3
3 4
3 67
3 130
3 193
3 256
3 319
3 382
4 5
4 9
5 6
6 7
6 1528
7 8
7 12
8 9
9 10
10 11
10 1329
10 1332
11 12
12 445
13 14
13 18
13 894
13 957
13 1020
13 1083
13 1146
13 1209
13 1272
14 15
15 16
15 1531
16 17
16 21
17 18
18 19
19 20
19 1530
20 21
21 454
22 23
22 27
22 903
22 966
22 1029
22 1092
22 1155
22 1218
22 1281
23 24
24 25
24 1534
25 26
25 30
26 27
27 28
28 29
28 1533
29 30
30 463
31 32
31 36
31 912
31 975
31 1038
31 1101
31 1164
31 1227
31 1290
32 33
33 34
33 1537
34 35
34 39
35 36
36 37
37 38
37 1536
38 39
39 472
40 41
40 45
40 921
40 984
40 1047
40 1110
40 1173
40 1236
40 1299
41 42
42 43
42 1540
43 44
43 48
44 45
45 46
46 47
46 1539
47 48
48 481
49 50
49 54
49 930
49 993
49 1056
49 1119
49 1182
49 1245
49 1308
50 51
51 52
51 1543
52 53
52 57
53 54
54 55
55 56
55 1542
56 57
57 490
58 59
58 63
58 939
58 1002
58 1065
58 1128
58 1191
58 1254
58 1317
59 60
60 61
60 1546
61 62
61 66
62 63
63 64
64 65
64 1545
65 66
66 499
67 68
67 72
68 69
69 70
69 1549
70 71
70 75
71 72
72 73
73 74
73 1335
73 1338
74 75
75 508
76 77
76 81
76 894
76 957
76 1020
76 1083
76 1146
76 1209
76 1272
77 78
78 79
78 1552
79 80
79 84
80 81
81 82
82 83
82 1551
83 84
84 517
85 86
85 90
85 903
85 966
85 1029
85 1092
85 1155
85 1218
85 1281
86 87
87 88
87 1555
88 89
88 93
89 90
90 91
91 92
91 1554
92 93
93 526
94 95
94 99
94 912
94 975
94 1038
94 1101
94 1164
94 1227
94 1290
95 96
96 97
96 1558
97 98
97 102
98 99
99 100
100 101
100 1557
101 102
102 535
103 104
103 108
103 921
103 984
103 1047
103 1110
103 1173
103 1236
103 1299
104 105
105 106
105 1561
106 107
106 111
107 108
108 109
109 110
109 1560
110 111
111 544
112 113
112 117
112 930
112 993
112 1056
112 1119
112 1182
112 1245
112 1308
113 114
114 115
114 1564
115 116
115 120
116 117
117 118
118 119
118 1563
119 120
120 553
121 122
121 126
121 939
121 1002
121 1065
121 1128
121 1191
121 1254
121 1317
122 123
123 124
123 1567
124 125
124 129
125 126
126 127
127 128
127 1566
128 129
129 562
130 131
130 135
131 132
132 133
132 1570
133 134
133 138
134 135
135 136
136 137
136 1341
136 1344
137 138
138 571
139 140
139 144
139 894
139 957
139 1020
139 1083
139 1146
139 1209
139 1272
140 141
141 142
141 1573
142 143
142 147
143 144
144 145
145 146
145 1572
146 147
147 580
148 149
148 153
148 903
148 966
148 1029
148 1092
148 1155
148 1218
148 1281
149 150
150 151
150 1576
151 152
151 156
152 153
153 154
154 155
154 1575
155 156
156 589
157 158
157 162
157 912
157 975
157 1038
157 1101
157 1164
157 1227
157 1290
158 159
159 160
159 1579
160 161
160 165
161 162
162 163
163 164
163 1578
164 165
165 598
166 167
166 171
166 921
166 984
166 1047
166 1110
166 1173
166 1236
166 1299
167 168
168 169
168 1582
169 170
169 174
170 171
171 172
172 173
172 1581
173 174
174 607
175 176
175 180
175 930
175 993
175 1056
175 1119
175 1182
175 1245
175 1308
176 177
177 178
177 1585
178 179
178 183
179 180
180 181
181 182
181 1584
182 183
183 616
184 185
184 189
184 939
184 1002
184 1065
184 1128
184 1191
184 1254
184 1317
185 186
186 187
186 1588
187 188
187 192
188 189
189 190
190 191
190 1587
191 192
192 625
193 194
193 198
194 195
195 196
195 1591
196 197
196 201
197 198
198 199
199 200
199 1347
199 1350
200 201
201 634
202 203
202 207
202 894
202 957
202 1020
202 1083
202 1146
202 1209
202 1272
203 204
204 205
204 1594
205 206
205 210
206 207
207 208
208 209
208 1593
209 210
210 643
211 212
211 216
211 903
211 966
211 1029
211 1092
211 1155
211 1218
211 1281
212 213
213 214
213 1597
214 215
214 219
215 216
216 217
217 218
217 1596
218 219
219 652
220 221
220 225
220 912
220 975
220 1038
220 1101
220 1164
220 1227
220 1290
221 222
222 223
222 1600
223 224
223 228
224 225
225 226
226 227
226 1599
227 228
228 661
229 230
229 234
229 921
229 984
229 1047
229 1110
229 1173
229 1236
229 1299
230 231
231 232
231 1603
232 233
232 237
233 234
234 235
235 236
235 1602
236 237
237 670
238 239
238 243
238 930
238 993
238 1056
238 1119
238 1182
238 1245
238 1308
239 240
240 241
240 1606
241 242
241 246
242 243
243 244
244 245
244 1605
245 246
246 679
247 248
247 252
247 939
247 1002
247 1065
247 1128
247 1191
247 1254
247 1317
248 249
249 250
249 1609
250 251
250 255
251 252
252 253
253 254
253 1608
254 255
255 688
256 257
256 261
257 258
258 259
258 1612
259 260
259 264
260 261
261 262
262 263
262 1353
262 1356
263 264
264 697
265 266
265 270
265 894
265 957
265 1020
265 1083
265 1146
265 1209
265 1272
266 267
267 268
267 1615
268 269
268 273
269 270
270 271
271 272
271 1614
272 273
273 706
274 275
274 279
274 903
274 966
274 1029
274 1092
274 1155
274 1218
274 1281
275 276
276 277
276 1618
277 278
277 282
278 279
279 280
280 281
280 1617
281 282
282 715
283 284
283 288
283 912
283 975
283 1038
283 1101
283 1164
283 1227
283 1290
284 285
285 286
285 1621
286 287
286 291
287 288
288 289
289 290
289 1620
290 291
291 724
292 293
292 297
292 921
292 984
292 1047
292 1110
292 1173
292 1236
292 1299
293 294
294 295
294 1624
295 296
295 300
296 297
297 298
298 299
298 1623
299 300
300 733
301 302
301 306
301 930
301 993
301 1056
301 1119
301 1182
301 1245
301 1308
302 303
303 304
303 1627
304 305
304 309
305 306
306 307
307 308
307 1626
308 309
309 742
310 311
310 315
310 939
310 1002
310 1065
310 1128
310 1191
310 1254
310 1317
311 312
312 313
312 1630
313 314
313 318
314 315
315 316
316 317
316 1629
317 318
318 751
319 320
319 324
320 321
321 322
321 1633
322 323
322 327
323 324
324 325
325 326
325 1359
325 1362
326 327
327 760
328 329
328 333
328 894
328 957
328 1020
328 1083
328 1146
328 1209
328 1272
329 330
330 331
330 1636
331 332
331 336
332 333
333 334
334 335
334 1635
335 336
336 769
337 338
337 342
337 903
337 966
337 1029
337 1092
337 1155
337 1218
337 1281
338 339
339 340
339 1639
340 341
340 345
341 342
342 343
343 344
343 1638
344 345
345 778
346 347
346 351
346 912
346 975
346 1038
346 1101
346 1164
346 1227
346 1290
347 348
348 349
348 1642
349 350
349 354
350 351
351 352
352 353
352 1641
353 354
354 787
355 356
355 360
355 921
355 984
355 1047
355 1110
355 1173
355 1236
355 1299
356 357
357 358
357 1645
358 359
358 363
359 360
360 361
361 362
361 1644
362 363
363 796
364 365
364 369
364 930
364 993
364 1056
364 1119
364 1182
364 1245
364 1308
365 366
366 367
366 1648
367 368
367 372
368 369
369 370
370 371
370 1647
371 372
372 805
373 374
373 378
373 939
373 1002
373 1065
373 1128
373 1191
373 1254
373 1317
374 375
375 376
375 1651
376 377
376 381
377 378
378 379
379 380
379 1650
380 381
381 814
382 383
382 387
383 384
384 385
384 1654
385 386
385 390
386 387
387 388
388 389
388 1365
388 1368
389 390
390 823
391 392
391 396
391 894
391 957
391 1020
391 1083
391 1146
391 1209
391 1272
392 393
393 394
393 1657
394 395
394 399
395 396
396 397
397 398
397 1656
398 399
399 832
400 401
400 405
400 903
400 966
400 1029
400 1092
400 1155
400 1218
400 1281
401 402
402 403
402 1660
403 404
403 408
404 405
405 406
406 407
406 1659
407 408
408 841
409 410
409 414
409 912
409 975
409 1038
409 1101
409 1164
409 1227
409 1290
410 411
411 412
411 1663
412 413
412 417
413 414
414 415
415 416
415 1662
416 417
417 850
418 419
418 423
418 921
418 984
418 1047
418 1110
418 1173
418 1236
418 1299
419 420
420 421
420 1666
421 422
421 426
422 423
423 424
424 425
424 1665
425 426
426 859
427 428
427 432
427 930
427 993
427 1056
427 1119
427 1182
427 1245
427 1308
428 429
429 430
429 1669
430 431
430 435
431 432
432 433
433 434
433 1668
434 435
435 868
436 437
436 441
436 939
436 1002
436 1065
436 1128
436 1191
436 1254
436 1317
437 438
438 439
438 1672
439 440
439 444
440 441
441 442
442 443
442 1671
443 444
444 877
445 446
445 450
446 447
447 448
447 1675
448 449
448 453
449 450
450 451
451 452
451 1407
451 1410
452 453
453 886
454 455
454 459
455 456
456 457
456 1678
457 458
457 462
458 459
459 460
460 461
460 1401
460 1404
461 462
462 895
463 464
463 468
464 465
465 466
465 1681
466 467
466 471
467 468
468 469
469 470
469 1395
469 1398
470 471
471 904
472 473
472 477
473 474
474 475
474 1684
475 476
475 480
476 477
477 478
478 479
478 1389
478 1392
479 480
480 913
481 482
481 486
482 483
483 484
483 1687
484 485
484 489
485 486
486 487
487 488
487 1383
487 1386
488 489
489 922
490 491
490 495
491 492
492 493
492 1690
493 494
493 498
494 495
495 496
496 497
496 1377
496 1380
497 498
498 931
499 500
499 504
500 501
501 502
501 1693
502 503
502 507
503 504
504 505
505 506
505 1371
505 1374
506 507
507 940
508 509
508 513
509 510
510 511
510 1696
511 512
511 516
512 513
513 514
514 515
514 1413
514 1416
515 516
516 949
517 518
517 522
518 519
519 520
519 1699
520 521
520 525
521 522
522 523
523 524
523 1677
524 525
525 958
526 527
526 531
527 528
528 529
528 1702
529 530
529 534
530 531
531 532
532 533
532 1680
533 534
534 967
535 536
535 540
536 537
537 538
537 1705
538 539
538 543
539 540
540 541
541 542
541 1683
542 543
543 976
544 545
544 549
545 546
546 547
546 1708
547 548
547 552
548 549
549 550
550 551
550 1686
551 552
552 985
553 554
553 558
554 555
555 556
555 1711
556 557
556 561
557 558
558 559
559 560
559 1689
560 561
561 994
562 563
562 567
563 564
564 565
564 1714
565 566
565 570
566 567
567 568
568 569
568 1692
569 570
570 1003
571 572
571 576
572 573
573 574
573 1717
574 575
574 579
575 576
576 577
577 578
577 1419
577 1422
578 579
579 1012
580 581
580 585
581 582
582 583
582 1720
583 584
583 588
584 585
585 586
586 587
586 1698
587 588
588 1021
589 590
589 594
590 591
591 592
591 1723
592 593
592 597
593 594
594 595
595 596
595 1701
596 597
597 1030
598 599
598 603
599 600
600 601
600 1726
601 602
601 606
602 603
603 604
604 605
604 1704
605 606
606 1039
607 608
607 612
608 609
609 610
609 1729
610 611
610 615
611 612
612 613
613 614
613 1707
614 615
615 1048
616 617
616 621
617 618
618 619
618 1732
619 620
619 624
620 621
621 622
622 623
622 1710
623 624
624 1057
625 626
625 630
626 627
627 628
627 1735
628 629
628 633
629 630
630 631
631 632
631 1713
632 633
633 1066
634 635
634 639
635 636
636 637
636 1738
637 638
637 642
638 639
639 640
640 641
640 1425
640 1428
641 642
642 1075
643 644
643 648
644 645
645 646
645 1741
646 647
646 651
647 648
648 649
649 650
649 1719
650 651
651 1084
652 653
652 657
653 654
654 655
654 1744
655 656
655 660
656 657
657 658
658 659
658 1722
659 660
660 1093
661 662
661 666
662 663
663 664
663 1747
664 665
664 669
665 666
666 667
667 668
667 1725
668 669
669 1102
670 671
670 675
671 672
672 673
672 1750
673 674
673 678
674 675
675 676
676 677
676 1728
677 678
678 1111
679 680
679 684
680 681
681 682
681 1753
682 683
682 687
683 684
684 685
685 686
685 1731
686 687
687 1120
688 689
688 693
689 690
690 691
690 1756
691 692
691 696
692 693
693 694
694 695
694 1734
695 696
696 1129
697 698
697 702
698 699
699 700
699 1759
700 701
700 705
701 702
702 703
703 704
703 1431
703 1434
704 705
705 1138
706 707
706 711
707 708
708 709
708 1762
709 710
709 714
710 711
711 712
712 713
712 1740
713 714
714 1147
715 716
715 720
716 717
717 718
717 1765
718 719
718 723
719 720
720 721
721 722
721 1743
722 723
723 1156
724 725
724 729
725 726
726 727
726 1768
727 728
727 732
728 729
729 730
730 731
730 1746
731 732
732 1165
733 734
733 738
734 735
735 736
735 1771
736 737
736 741
737 738
738 739
739 740
739 1749
740 741
741 1174
742 743
742 747
743 744
744 745
744 1774
745 746
745 750
746 747
747 748
748 749
748 1752
749 750
750 1183
751 752
751 756
752 753
753 754
753 1777
754 755
754 759
755 756
756 757
757 758
757 1755
758 759
759 1192
760 761
760 765
761 762
762 763
762 1780
763 764
763 768
764 765
765 766
766 767
766 1437
766 1440
767 768
768 1201
769 770
769 774
770 771
771 772
771 1783
772 773
772 777
773 774
774 775
775 776
775 1761
776 777
777 1210
778 779
778 783
779 780
780 781
780 1786
781 782
781 786
782 783
783 784
784 785
784 1764
785 786
786 1219
787 788
787 792
788 789
789 790
789 1789
790 791
790 795
791 792
792 793
793 794
793 1767
794 795
795 1228
796 797
796 801
797 798
798 799
798 1792
799 800
799 804
800 801
801 802
802 803
802 1770
803 804
804 1237
805 806
805 810
806 807
807 808
807 1795
808 809
808 813
809 810
810 811
811 812
811 1773
812 813
813 1246
814 815
814 819
815 816
816 817
816 1798
817 818
817 822
818 819
819 820
820 821
820 1776
821 822
822 1255
823 824
823 828
824 825
825 826
825 1801
826 827
826 831
827 828
828 829
829 830
829 1443
829 1446
830 831
831 1264
832 833
832 837
833 834
834 835
834 1804
835 836
835 840
836 837
837 838
838 839
838 1782
839 840
840 1273
841 842
841 846
842 843
843 844
843 1807
844 845
844 849
845 846
846 847
847 848
847 1785
848 849
849 1282
850 851
850 855
851 852
852 853
852 1810
853 854
853 858
854 855
855 856
856 857
856 1788
857 858
858 1291
859 860
859 864
860 861
861 862
861 1813
862 863
862 867
863 864
864 865
865 866
865 1791
866 867
867 1300
868 869
868 873
869 870
870 871
870 1816
871 872
871 876
872 873
873 874
874 875
874 1794
875 876
876 1309
877 878
877 882
878 879
879 880
879 1819
880 881
880 885
881 882
882 883
883 884
883 1797
884 885
885 1318
886 887
886 891
887 888
888 889
888 1822
889 890
889 894
890 891
891 892
892 893
892 1449
892 1452
893 894
895 896
895 900
896 897
897 898
897 1825
898 899
898 903
899 900
900 901
901 902
901 1455
901 1458
902 903
904 905
904 909
905 906
906 907
906 1828
907 908
907 912
908 909
909 910
910 911
910 1461
910 1464
911 912
913 914
913 918
914 915
915 916
915 1831
916 917
916 921
917 918
918 919
919 920
919 1467
919 1470
920 921
922 923
922 927
923 924
924 925
924 1834
925 926
925 930
926 927
927 928
928 929
928 1473
928 1476
929 930
931 932
931 936
932 933
933 934
933 1837
934 935
934 939
935 936
936 937
937 938
937 1479
937 1482
938 939
940 941
940 945
941 942
942 943
942 1840
943 944
943 948
944 945
945 946
946 947
946 1485
946 1488
947 948
948 1327
949 950
949 954
950 951
951 952
951 1843
952 953
952 957
953 954
954 955
955 956
955 1827
956 957
958 959
958 963
959 960
960 961
960 1846
961 962
961 966
962 963
963 964
964 965
964 1830
965 966
967 968
967 972
968 969
969 970
969 1849
970 971
970 975
971 972
972 973
973 974
973 1833
974 975
976 977
976 981
977 978
978 979
978 1852
979 980
979 984
980 981
981 982
982 983
982 1836
983 984
985 986
985 990
986 987
987 988
987 1855
988 989
988 993
989 990
990 991
991 992
991 1839
992 993
994 995
994 999
995 996
996 997
996 1858
997 998
997 1002
998 999
999 1000
1000 1001
1000 1842
1001 1002
1003 1004
1003 1008
1004 1005
1005 1006
1005 1861
1006 1007
1006 1011
1007 1008
1008 1009
1009 1010
1009 1491
1009 1494
1010 1011
1011 1327
1012 1013
1012 1017
1013 1014
1014 1015
1014 1864
1015 1016
1015 1020
1016 1017
1017 1018
1018 1019
1018 1848
1019 1020
1021 1022
1021 1026
1022 1023
1023 1024
1023 1867
1024 1025
1024 1029
1025 1026
1026 1027
1027 1028
1027 1851
1028 1029
1030 1031
1030 1035
1031 1032
1032 1033
1032 1870
1033 1034
1033 1038
1034 1035
1035 1036
1036 1037
1036 1854
1037 1038
1039 1040
1039 1044
1040 1041
1041 1042
1041 1873
1042 1043
1042 1047
1043 1044
1044 1045
1045 1046
1045 1857
1046 1047
1048 1049
1048 1053
1049 1050
1050 1051
1050 1876
1051 1052
1051 1056
1052 1053
1053 1054
1054 1055
1054 1860
1055 1056
1057 1058
1057 1062
1058 1059
1059 1060
1059 1879
1060 1061
1060 1065
1061 1062
1062 1063
1063 1064
1063 1863
1064 1065
1066 1067
1066 1071
1067 1068
1068 1069
1068 1882
1069 1070
1069 1074
1070 1071
1071 1072
1072 1073
1072 1497
1072 1500
1073 1074
1074 1327
1075 1076
1075 1080
1076 1077
1077 1078
1077 1885
1078 1079
1078 1083
1079 1080
1080 1081
1081 1082
1081 1869
1082 1083
1084 1085
1084 1089
1085 1086
1086 1087
1086 1888
1087 1088
1087 1092
1088 1089
1089 1090
1090 1091
1090 1872
1091 1092
1093 1094
1093 1098
1094 1095
1095 1096
1095 1891
1096 1097
1096 1101
1097 1098
1098 1099
1099 1100
1099 1875
1100 1101
1102 1103
1102 1107
1103 1104
1104 1105
1104 1894
1105 1106
1105 1110
1106 1107
1107 1108
1108 1109
1108 1878
1109 1110
1111 1112
1111 1116
1112 1113
1113 1114
1113 1897
1114 1115
1114 1119
1115 1116
1116 1117
1117 1118
1117 1881
1118 1119
1120 1121
1120 1125
1121 1122
1122 1123
1122 1900
1123 1124
1123 1128
1124 1125
1125 1126
1126 1127
1126 1884
1127 1128
1129 1130
1129 1134
1130 1131
1131 1132
1131 1903
1132 1133
1132 1137
1133 1134
1134 1135
1135 1136
1135 1503
1135 1506
1136 1137
1137 1327
1138 1139
1138 1143
1139 1140
1140 1141
1140 1906
1141 1142
1141 1146
1142 1143
1143 1144
1144 1145
1144 1890
1145 1146
1147 1148
1147 1152
1148 1149
1149 1150
1149 1909
1150 1151
1150 1155
1151 1152
1152 1153
1153 1154
1153 1893
1154 1155
1156 1157
1156 1161
1157 1158
1158 1159
1158 1912
1159 1160
1159 1164
1160 1161
1161 1162
1162 1163
1162 1896
1163 1164
1165 1166
1165 1170
1166 1167
1167 1168
1167 1915
1168 1169
1168 1173
1169 1170
1170 1171
1171 1172
1171 1899
1172 1173
1174 1175
1174 1179
1175 1176
1176 1177
1176 1918
1177 1178
1177 1182
1178 1179
1179 1180
1180 1181
1180 1902
1181 1182
1183 1184
1183 1188
1184 1185
1185 1186
1185 1921
1186 1187
1186 1191
1187 1188
1188 1189
1189 1190
1189 1905
1190 1191
1192 1193
1192 1197
1193 1194
1194 1195
1194 1924
1195 1196
1195 1200
1196 1197
1197 1198
1198 1199
1198 1509
1198 1512
1199 1200
1200 1327
1201 1202
1201 1206
1202 1203
1203 1204
1203 1927
1204 1205
1204 1209
1205 1206
1206 1207
1207 1208
1207 1911
1208 1209
1210 1211
1210 1215
1211 1212
1212 1213
1212 1930
1213 1214
1213 1218
1214 1215
1215 1216
1216 1217
1216 1914
1217 1218
1219 1220
1219 1224
1220 1221
1221 1222
1221 1933
1222 1223
1222 1227
1223 1224
1224 1225
1225 1226
1225 1917
1226 1227
1228 1229
1228 1233
1229 1230
1230 1231
1230 1936
1231 1232
1231 1236
1232 1233
1233 1234
1234 1235
1234 1920
1235 1236
1237 1238
1237 1242
1238 1239
1239 1240
1239 1939
1240 1241
1240 1245
1241 1242
1242 1243
1243 1244
1243 1923
1244 1245
1246 1247
1246 1251
1247 1248
1248 1249
1248 1942
1249 1250
1249 1254
1250 1251
1251 1252
1252 1253
1252 1926
1253 1254
1255 1256
1255 1260
1256 1257
1257 1258
1257 1945
1258 1259
1258 1263
1259 1260
1260 1261
1261 1262
1261 1515
1261 1518
1262 1263
1263 1327
1264 1265
1264 1269
1265 1266
1266 1267
1266 1948
1267 1268
1267 1272
1268 1269
1269 1270
1270 1271
1270 1932
1271 1272
1273 1274
1273 1278
1274 1275
1275 1276
1275 1951
1276 1277
1276 1281
1277 1278
1278 1279
1279 1280
1279 1935
1280 1281
1282 1283
1282 1287
1283 1284
1284 1285
1284 1954
1285 1286
1285 1290
1286 1287
1287 1288
1288 1289
1288 1938
1289 1290
1291 1292
1291 1296
1292 1293
1293 1294
1293 1957
1294 1295
1294 1299
1295 1296
1296 1297
1297 1298
1297 1941
1298 1299
1300 1301
1300 1305
1301 1302
1302 1303
1302 1960
1303 1304
1303 1308
1304 1305
1305 1306
1306 1307
1306 1944
1307 1308
1309 1310
1309 1314
1310 1311
1311 1312
1311 1963
1312 1313
1312 1317
1313 1314
1314 1315
1315 1316
1315 1947
1316 1317
1318 1319
1318 1323
1319 1320
1320 1321
1320 1966
1321 1322
1321 1326
1322 1323
1323 1324
1324 1325
1324 1521
1324 1524
1325 1326
1326 1327
1327 1328
1328 1329
1329 1330
1330 1331
1330 1530
1330 1533
1330 1536
1330 1539
1330 1542
1330 1545
1331 1332
1332 1528
1332 1531
1332 1534
1332 1537
1332 1540
1332 1543
1332 1546
1333 1334
1333 1548
1334 1335
1335 1336
1336 1337
1336 1551
1336 1554
1336 1557
1336 1560
1336 1563
1336 1566
1337 1338
1338 1549
1338 1552
1338 1555
1338 1558
1338 1561
1338 1564
1338 1567
1339 1340
1339 1569
1340 1341
1341 1342
1342 1343
1342 1572
1342 1575
1342 1578
1342 1581
1342 1584
1342 1587
1343 1344
1344 1570
1344 1573
1344 1576
1344 1579
1344 1582
1344 1585
1344 1588
1345 1346
1345 1590
1346 1347
1347 1348
1348 1349
1348 1593
1348 1596
1348 1599
1348 1602
1348 1605
1348 1608
1349 1350
1350 1591
1350 1594
1350 1597
1350 1600
1350 1603
1350 1606
1350 1609
1351 1352
1351 1611
1352 1353
1353 1354
1354 1355
1354 1614
1354 1617
1354 1620
1354 1623
1354 1626
1354 1629
1355 1356
1356 1612
1356 1615
1356 1618
1356 1621
1356 1624
1356 1627
1356 1630
1357 1358
1357 1632
1358 1359
1359 1360
1360 1361
1360 1635
1360 1638
1360 1641
1360 1644
1360 1647
1360 1650
1361 1362
1362 1633
1362 1636
1362 1639
1362 1642
1362 1645
1362 1648
1362 1651
1363 1364
1363 1653
1364 1365
1365 1366
1366 1367
1366 1656
1366 1659
1366 1662
1366 1665
1366 1668
1366 1671
1367 1368
1368 1654
1368 1657
1368 1660
1368 1663
1368 1666
1368 1669
1368 1672
1369 1370
1369 1674
1370 1371
1371 1372
1372 1373
1373 1374
1374 1693
1375 1376
1375 1695
1376 1377
1377 1378
1378 1379
1378 1692
1379 1380
1380 1690
1380 1714
1381 1382
1381 1692
1381 1716
1382 1383
1383 1384
1384 1385
1384 1689
1384 1713
1385 1386
1386 1687
1386 1711
1386 1735
1387 1388
1387 1689
1387 1737
1388 1389
1389 1390
1390 1391
1390 1686
1390 1710
1390 1734
1391 1392
1392 1684
1392 1708
1392 1732
1392 1756
1393 1394
1393 1686
1393 1758
1394 1395
1395 1396
1396 1397
1396 1683
1396 1707
1396 1731
1396 1755
1397 1398
1398 1681
1398 1705
1398 1729
1398 1753
1398 1777
1399 1400
1399 1683
1399 1779
1400 1401
1401 1402
1402 1403
1402 1680
1402 1704
1402 1728
1402 1752
1402 1776
1403 1404
1404 1678
1404 1702
1404 1726
1404 1750
1404 1774
1404 1798
1405 1406
1405 1680
1405 1800
1406 1407
1407 1408
1408 1409
1408 1677
1408 1701
1408 1725
1408 1749
1408 1773
1408 1797
1409 1410
1410 1675
1410 1699
1410 1723
1410 1747
1410 1771
1410 1795
1410 1819
1411 1412
1411 1677
1411 1821
1412 1413
1413 1414
1414 1415
1414 1698
1414 1722
1414 1746
1414 1770
1414 1794
1415 1416
1416 1696
1416 1720
1416 1744
1416 1768
1416 1792
1416 1816
1417 1418
1417 1698
1417 1818
1418 1419
1419 1420
1420 1421
1420 1719
1420 1743
1420 1767
1420 1791
1421 1422
1422 1717
1422 1741
1422 1765
1422 1789
1422 1813
1423 1424
1423 1719
1423 1815
1424 1425
1425 1426
1426 1427
1426 1740
1426 1764
1426 1788
1427 1428
1428 1738
1428 1762
1428 1786
1428 1810
1429 1430
1429 1740
1429 1812
1430 1431
1431 1432
1432 1433
1432 1761
1432 1785
1433 1434
1434 1759
1434 1783
1434 1807
1435 1436
1435 1761
1435 1809
1436 1437
1437 1438
1438 1439
1438 1782
1439 1440
1440 1780
1440 1804
1441 1442
1441 1782
1441 1806
1442 1443
1443 1444
1444 1445
1445 1446
1446 1801
1447 1448
1447 1803
1448 1449
1449 1450
1450 1451
1451 1452
1452 1822
1453 1454
1453 1824
1454 1455
1455 1456
1456 1457
1456 1827
1457 1458
1458 1825
1458 1843
1459 1460
1459 1827
1459 1845
1460 1461
1461 1462
1462 1463
1462 1830
1462 1848
1463 1464
1464 1828
1464 1846
1464 1864
1465 1466
1465 1830
1465 1866
1466 1467
1467 1468
1468 1469
1468 1833
1468 1851
1468 1869
1469 1470
1470 1831
1470 1849
1470 1867
1470 1885
1471 1472
1471 1833
1471 1887
1472 1473
1473 1474
1474 1475
1474 1836
1474 1854
1474 1872
1474 1890
1475 1476
1476 1834
1476 1852
1476 1870
1476 1888
1476 1906
1477 1478
1477 1836
1477 1908
1478 1479
1479 1480
1480 1481
1480 1839
1480 1857
1480 1875
1480 1893
1480 1911
1481 1482
1482 1837
1482 1855
1482 1873
1482 1891
1482 1909
1482 1927
1483 1484
1483 1839
1483 1929
1484 1485
1485 1486
1486 1487
1486 1842
1486 1860
1486 1878
1486 1896
1486 1914
1486 1932
1487 1488
1488 1840
1488 1858
1488 1876
1488 1894
1488 1912
1488 1930
1488 1948
1489 1490
1489 1842
1489 1950
1490 1491
1491 1492
1492 1493
1492 1863
1492 1881
1492 1899
1492 1917
1492 1935
1493 1494
1494 1861
1494 1879
1494 1897
1494 1915
1494 1933
1494 1951
1495 1496
1495 1863
1495 1953
1496 1497
1497 1498
1498 1499
1498 1884
1498 1902
1498 1920
1498 1938
1499 1500
1500 1882
1500 1900
1500 1918
1500 1936
1500 1954
1501 1502
1501 1884
1501 1956
1502 1503
1503 1504
1504 1505
1504 1905
1504 1923
1504 1941
1505 1506
1506 1903
1506 1921
1506 1939
1506 1957
1507 1508
1507 1905
1507 1959
1508 1509
1509 1510
1510 1511
1510 1926
1510 1944
1511 1512
1512 1924
1512 1942
1512 1960
1513 1514
1513 1926
1513 1962
1514 1515
1515 1516
1516 1517
1516 1947
1517 1518
1518 1945
1518 1963
1519 1520
1519 1947
1519 1965
1520 1521
1521 1522
1522 1523
1523 1524
1524 1966
1525 1526
1525 1968
1526 1527
1528 1529
1529 1530
1531 1532
1532 1533
1534 1535
1535 1536
1537 1538
1538 1539
1540 1541
1541 1542
1543 1544
1544 1545
1546 1547
1547 1548
1549 1550
1550 1551
1552 1553
1553 1554
1555 1556
1556 1557
1558 1559
1559 1560
1561 1562
1562 1563
1564 1565
1565 1566
1567 1568
1568 1569
1570 1571
1571 1572
1573 1574
1574 1575
1576 1577
1577 1578
1579 1580
1580 1581
1582 1583
1583 1584
1585 1586
1586 1587
1588 1589
1589 1590
1591 1592
1592 1593
1594 1595
1595 1596
1597 1598
1598 1599
1600 1601
1601 1602
1603 1604
1604 1605
1606 1607
1607 1608
1609 1610
1610 1611
1612 1613
1613 1614
1615 1616
1616 1617
1618 1619
1619 1620
1621 1622
1622 1623
1624 1625
1625 1626
1627 1628
1628 1629
1630 1631
1631 1632
1633 1634
1634 1635
1636 1637
1637 1638
1639 1640
1640 1641
1642 1643
1643 1644
1645 1646
1646 1647
1648 1649
1649 1650
1651 1652
1652 1653
1654 1655
1655 1656
1657 1658
1658 1659
1660 1661
1661 1662
1663 1664
1664 1665
1666 1667
1667 1668
1669 1670
1670 1671
1672 1673
1673 1674
1675 1676
1676 1677
1678 1679
1679 1680
1681 1682
1682 1683
1684 1685
1685 1686
1687 1688
1688 1689
1690 1691
1691 1692
1693 1694
1694 1695
1696 1697
1697 1698
1699 1700
1700 1701
1702 1703
1703 1704
1705 1706
1706 1707
1708 1709
1709 1710
1711 1712
1712 1713
1714 1715
1715 1716
1717 1718
1718 1719
1720 1721
1721 1722
1723 1724
1724 1725
1726 1727
1727 1728
1729 1730
1730 1731
1732 1733
1733 1734
1735 1736
1736 1737
1738 1739
1739 1740
1741 1742
1742 1743
1744 1745
1745 1746
1747 1748
1748 1749
1750 1751
1751 1752
1753 1754
1754 1755
1756 1757
1757 1758
1759 1760
1760 1761
1762 1763
1763 1764
1765 1766
1766 1767
1768 1769
1769 1770
1771 1772
1772 1773
1774 1775
1775 1776
1777 1778
1778 1779
1780 1781
1781 1782
1783 1784
1784 1785
1786 1787
1787 1788
1789 1790
1790 1791
1792 1793
1793 1794
1795 1796
1796 1797
1798 1799
1799 1800
1801 1802
1802 1803
1804 1805
1805 1806
1807 1808
1808 1809
1810 1811
1811 1812
1813 1814
1814 1815
1816 1817
1817 1818
1819 1820
1820 1821
1822 1823
1823 1824
1825 1826
1826 1827
1828 1829
1829 1830
1831 1832
1832 1833
1834 1835
1835 1836
1837 1838
1838 1839
1840 1841
1841 1842
1843 1844
1844 1845
1846 1847
1847 1848
1849 1850
1850 1851
1852 1853
1853 1854
1855 1856
1856 1857
1858 1859
1859 1860
1861 1862
1862 1863
1864 1865
1865 1866
1867 1868
1868 1869
1870 1871
1871 1872
1873 1874
1874 1875
1876 1877
1877 1878
1879 1880
1880 1881
1882 1883
1883 1884
1885 1886
1886 1887
1888 1889
1889 1890
1891 1892
1892 1893
1894 1895
1895 1896
1897 1898
1898 1899
1900 1901
1901 1902
1903 1904
1904 1905
1906 1907
1907 1908
1909 1910
1910 1911
1912 1913
1913 1914
1915 1916
1916 1917
1918 1919
1919 1920
1921 1922
1922 1923
1924 1925
1925 1926
1927 1928
1928 1929
1930 1931
1931 1932
1933 1934
1934 1935
1936 1937
1937 1938
1939 1940
1940 1941
1942 1943
1943 1944
1945 1946
1946 1947
1948 1949
1949 1950
1951 1952
1952 1953
1954 1955
1955 1956
1957 1958
1958 1959
1960 1961
1961 1962
1963 1964
1964 1965
1966 1967
1967 1968
-1
EOF